benchmark/results/graph__10-1000-0.10-02_3/graph__10-1000-0.10-02_3_QuintonOs_Benders_primal_sub.lp
\ This file has been generated by DOcplex
\ ENCODING=ISO-8859-1
\Problem name: Quinton Bounded Benders_primal_sub

Maximize
 obj: tau
Subject To
 c1: tau <= 0.001081081081
 c2: y_a0_proc_1 - tau = 0
 c3: y_a0_proc_1 <= 1
 c4: tau <= 0.001018329939
 c5: y_a1_proc_1 - tau = 0
 c6: y_a1_proc_1 <= 1
 c7: tau <= 0.000856898029
 c8: y_a2_proc_0 + y_a2_proc_1 - tau = 0
 c9: y_a2_proc_0 <= 1
 c10: y_a2_proc_1 <= 0
 c11: tau <= 0.001064962726
 c12: y_a3_proc_0 - tau = 0
 c13: y_a3_proc_0 <= 1
 c14: tau <= 0.001342281879
 c15: y_a4_proc_1 - tau = 0
 c16: y_a4_proc_1 <= 1
 c17: tau <= 0.001213592233
 c18: y_a5_proc_0 + y_a5_proc_1 - tau = 0
 c19: y_a5_proc_0 <= 1
 c20: y_a5_proc_1 <= 0
 c21: tau <= 0.000987166831
 c22: y_a6_proc_1 - tau = 0
 c23: y_a6_proc_1 <= 1
 c24: tau <= 0.000905797101
 c25: y_a7_proc_0 + y_a7_proc_1 - tau = 0
 c26: y_a7_proc_0 <= 1
 c27: y_a7_proc_1 <= 0
 c28: tau <= 0.000846740051
 c29: y_a8_proc_0 + y_a8_proc_1 - tau = 0
 c30: y_a8_proc_0 <= 1
 c31: y_a8_proc_1 <= 0
 c32: tau <= 0.000960614793
 c33: y_a9_proc_0 + y_a9_proc_1 - tau = 0
 c34: y_a9_proc_0 <= 0
 c35: y_a9_proc_1 <= 1
 c36: u_a1 - u_a0 - 925 y_a0_proc_1 >= -2
 c37: u_a1 - u_a2 - 1167 y_a2_proc_0 - 1119 y_a2_proc_1 >= 0
 c38: u_a3 - u_a1 - 982 y_a1_proc_1 >= 0
 c39: u_a2 - u_a4 - 745 y_a4_proc_1 >= -1
 c40: u_a5 - u_a1 - 982 y_a1_proc_1 >= 0
 c41: u_a5 - u_a6 - 1013 y_a6_proc_1 >= -1
 c42: u_a7 - u_a5 - 824 y_a5_proc_0 - 1227 y_a5_proc_1 >= 0
 c43: u_a8 - u_a7 - 1104 y_a7_proc_0 - 1159 y_a7_proc_1 >= 0
 c44: u_a9 - u_a4 - 745 y_a4_proc_1 >= 0
 c45: u_a2 - u_a0 - 925 y_a0_proc_1 >= -2
 c46: u_a0 - u_a3 - 939 y_a3_proc_0 >= 0
 c47: u_a7 - u_a3 - 939 y_a3_proc_0 >= 0
 c48: u_a8 - u_a0 - 925 y_a0_proc_1 >= 0
 c49: u_a6 - u_a4 - 745 y_a4_proc_1 >= 0
 c50: u_a4 - u_a5 - 824 y_a5_proc_0 - 1227 y_a5_proc_1 >= 0
 c51: u_a0 - u_a9 - 952 y_a9_proc_0 - 1041 y_a9_proc_1 >= 0
 c52: u_a6 - u_a8 - 1181 y_a8_proc_0 - 801 y_a8_proc_1 >= 0
 c53: u_a1 - u_a0 - 925 y_a0_proc_1 >= -1
 c54: u_a0 - u_a1 - 982 y_a1_proc_1 >= 0
 c55: u_a2 - u_a0 - 925 y_a0_proc_1 >= -1239
 c56: u_a0 - u_a2 - 1119 y_a2_proc_1 >= -1216
 c57: u_a4 - u_a0 - 925 y_a0_proc_1 >= -1
 c58: u_a0 - u_a4 - 745 y_a4_proc_1 >= 0
 c59: u_a5 - u_a0 - 925 y_a0_proc_1 >= -1239
 c60: u_a0 - u_a5 - 1227 y_a5_proc_1 >= -1216
 c61: u_a6 - u_a0 - 925 y_a0_proc_1 >= 0
 c62: u_a0 - u_a6 - 1013 y_a6_proc_1 >= -1
 c63: u_a7 - u_a0 - 925 y_a0_proc_1 >= -1239
 c64: u_a0 - u_a7 - 1159 y_a7_proc_1 >= -1216
 c65: u_a8 - u_a0 - 925 y_a0_proc_1 >= -1239
 c66: u_a0 - u_a8 - 801 y_a8_proc_1 >= -1216
 c67: u_a9 - u_a0 - 925 y_a0_proc_1 >= -1
 c68: u_a0 - u_a9 - 1041 y_a9_proc_1 >= 0
 c69: u_a2 - u_a1 - 982 y_a1_proc_1 >= -1239
 c70: u_a1 - u_a2 - 1119 y_a2_proc_1 >= -1216
 c71: u_a4 - u_a1 - 982 y_a1_proc_1 >= 0
 c72: u_a1 - u_a4 - 745 y_a4_proc_1 >= -1
 c73: u_a5 - u_a1 - 982 y_a1_proc_1 >= -1239
 c74: u_a1 - u_a5 - 1227 y_a5_proc_1 >= -1216
 c75: u_a6 - u_a1 - 982 y_a1_proc_1 >= 1
 c76: u_a1 - u_a6 - 1013 y_a6_proc_1 >= -2
 c77: u_a7 - u_a1 - 982 y_a1_proc_1 >= -1239
 c78: u_a1 - u_a7 - 1159 y_a7_proc_1 >= -1216
 c79: u_a8 - u_a1 - 982 y_a1_proc_1 >= -1239
 c80: u_a1 - u_a8 - 801 y_a8_proc_1 >= -1216
 c81: u_a9 - u_a1 - 982 y_a1_proc_1 >= 0
 c82: u_a1 - u_a9 - 1041 y_a9_proc_1 >= -1
 c83: u_a3 - u_a2 - 1167 y_a2_proc_0 >= 0
 c84: u_a2 - u_a3 - 939 y_a3_proc_0 >= -1
 c85: u_a4 - u_a2 - 1119 y_a2_proc_1 >= -1239
 c86: u_a2 - u_a4 - 745 y_a4_proc_1 >= -1216
 c87: u_a5 - u_a2 - 1119 y_a2_proc_1 >= -2454
 c88: u_a5 - u_a2 - 1167 y_a2_proc_0 >= 0
 c89: u_a2 - u_a5 - 1227 y_a5_proc_1 >= -2455
 c90: u_a2 - u_a5 - 824 y_a5_proc_0 >= -1
 c91: u_a6 - u_a2 - 1119 y_a2_proc_1 >= -1239
 c92: u_a2 - u_a6 - 1013 y_a6_proc_1 >= -1216
 c93: u_a7 - u_a2 - 1119 y_a2_proc_1 >= -2454
 c94: u_a7 - u_a2 - 1167 y_a2_proc_0 >= 0
 c95: u_a2 - u_a7 - 1159 y_a7_proc_1 >= -2455
 c96: u_a2 - u_a7 - 1104 y_a7_proc_0 >= -1
 c97: u_a8 - u_a2 - 1119 y_a2_proc_1 >= -2453
 c98: u_a8 - u_a2 - 1167 y_a2_proc_0 >= 1
 c99: u_a2 - u_a8 - 801 y_a8_proc_1 >= -2456
 c100: u_a2 - u_a8 - 1181 y_a8_proc_0 >= -2
 c101: u_a9 - u_a2 - 1119 y_a2_proc_1 >= -1239
 c102: u_a9 - u_a2 - 1167 y_a2_proc_0 >= -1239
 c103: u_a2 - u_a9 - 1041 y_a9_proc_1 >= -1216
 c104: u_a2 - u_a9 - 952 y_a9_proc_0 >= -1216
 c105: u_a5 - u_a3 - 939 y_a3_proc_0 >= 0
 c106: u_a3 - u_a5 - 824 y_a5_proc_0 >= -1
 c107: u_a7 - u_a3 - 939 y_a3_proc_0 >= 0
 c108: u_a3 - u_a7 - 1104 y_a7_proc_0 >= -1
 c109: u_a8 - u_a3 - 939 y_a3_proc_0 >= 0
 c110: u_a3 - u_a8 - 1181 y_a8_proc_0 >= -1
 c111: u_a9 - u_a3 - 939 y_a3_proc_0 >= -1239
 c112: u_a3 - u_a9 - 952 y_a9_proc_0 >= -1216
 c113: u_a5 - u_a4 - 745 y_a4_proc_1 >= -1239
 c114: u_a4 - u_a5 - 1227 y_a5_proc_1 >= -1216
 c115: u_a6 - u_a4 - 745 y_a4_proc_1 >= 0
 c116: u_a4 - u_a6 - 1013 y_a6_proc_1 >= -1
 c117: u_a7 - u_a4 - 745 y_a4_proc_1 >= -1239
 c118: u_a4 - u_a7 - 1159 y_a7_proc_1 >= -1216
 c119: u_a8 - u_a4 - 745 y_a4_proc_1 >= -1239
 c120: u_a4 - u_a8 - 801 y_a8_proc_1 >= -1216
 c121: u_a9 - u_a4 - 745 y_a4_proc_1 >= 0
 c122: u_a4 - u_a9 - 1041 y_a9_proc_1 >= -1
 c123: u_a6 - u_a5 - 1227 y_a5_proc_1 >= -1239
 c124: u_a5 - u_a6 - 1013 y_a6_proc_1 >= -1216
 c125: u_a7 - u_a5 - 1227 y_a5_proc_1 >= -2454
 c126: u_a7 - u_a5 - 824 y_a5_proc_0 >= 0
 c127: u_a5 - u_a7 - 1159 y_a7_proc_1 >= -2455
 c128: u_a5 - u_a7 - 1104 y_a7_proc_0 >= -1
 c129: u_a8 - u_a5 - 1227 y_a5_proc_1 >= -2454
 c130: u_a8 - u_a5 - 824 y_a5_proc_0 >= 0
 c131: u_a5 - u_a8 - 801 y_a8_proc_1 >= -2455
 c132: u_a5 - u_a8 - 1181 y_a8_proc_0 >= -1
 c133: u_a9 - u_a5 - 1227 y_a5_proc_1 >= -1239
 c134: u_a9 - u_a5 - 824 y_a5_proc_0 >= -1239
 c135: u_a5 - u_a9 - 1041 y_a9_proc_1 >= -1216
 c136: u_a5 - u_a9 - 952 y_a9_proc_0 >= -1216
 c137: u_a7 - u_a6 - 1013 y_a6_proc_1 >= -1239
 c138: u_a6 - u_a7 - 1159 y_a7_proc_1 >= -1216
 c139: u_a8 - u_a6 - 1013 y_a6_proc_1 >= -1239
 c140: u_a6 - u_a8 - 801 y_a8_proc_1 >= -1216
 c141: u_a9 - u_a6 - 1013 y_a6_proc_1 >= -1
 c142: u_a6 - u_a9 - 1041 y_a9_proc_1 >= 0
 c143: u_a8 - u_a7 - 1159 y_a7_proc_1 >= -2454
 c144: u_a8 - u_a7 - 1104 y_a7_proc_0 >= 0
 c145: u_a7 - u_a8 - 801 y_a8_proc_1 >= -2455
 c146: u_a7 - u_a8 - 1181 y_a8_proc_0 >= -1
 c147: u_a9 - u_a7 - 1159 y_a7_proc_1 >= -1216
 c148: u_a9 - u_a7 - 1104 y_a7_proc_0 >= -1216
 c149: u_a7 - u_a9 - 1041 y_a9_proc_1 >= -1239
 c150: u_a7 - u_a9 - 952 y_a9_proc_0 >= -1239
 c151: u_a9 - u_a8 - 801 y_a8_proc_1 >= -1239
 c152: u_a9 - u_a8 - 1181 y_a8_proc_0 >= -1239
 c153: u_a8 - u_a9 - 1041 y_a9_proc_1 >= -1216
 c154: u_a8 - u_a9 - 952 y_a9_proc_0 >= -1216

Bounds
End
