benchmark/results/graph__10-1000-0.10-02_3/graph__10-1000-0.10-02_3_QuintonOs_Benders_primal_sub.txt
solution for: Quinton Bounded Benders_primal_sub
objective: 0.000174551
status: OPTIMAL_SOLUTION(2)
u_a0=1.042
u_a1=0.204
u_a3=0.423
u_a4=0.730
u_a5=0.587
u_a6=1.410
u_a7=0.730
u_a8=1.204
u_a9=0.861
tau=0.000
y_a0_proc_1=0.000
y_a1_proc_1=0.000
y_a2_proc_0=0.000
y_a3_proc_0=0.000
y_a4_proc_1=0.000
y_a5_proc_0=0.000
y_a6_proc_1=0.000
y_a7_proc_0=0.000
y_a8_proc_0=0.000
y_a9_proc_1=0.000
